506798.38,9.15,10.03
487652.22,9.51,10.42
507395.01,9.14,10.01
512037.61,9.06,9.92
501520.75,9.25,10.13
505563.05,9.18,10.05
484994.45,9.56,10.48
481600.71,9.63,10.55
522524.24,8.88,9.72
508862.98,9.12,9.98
494168.6,9.39,10.28
514219.84,9.02,9.88
497542.41,9.32,10.21
496207.4,9.35,10.24
511990.23,9.06,9.92
505157.73,9.18,10.06
515838.42,8.99,9.85
503698.43,9.21,10.09
496644.45,9.34,10.23
502606.83,9.23,10.11
